NAME: GRASP_28_15
TYPE: TSP
COMMENT: line_28_15
DIMENSION: 28
EDGE_WEIGHT_TYPE: EUC_2D
NODE_COORD_SECTION
1 1951 2908
2 730 1437
3 829 3740
4 4327 2703
5 4133 1002
6 3111 1095
7 63 2228
8 4290 899
9 2225 927
10 1140 1391
11 187 978
12 2670 2195
13 4035 4257
14 3650 2760
15 2563 4147
16 734 3645
17 845 336
18 4739 1894
19 2878 3013
20 1547 200
21 3738 3296
22 774 2831
23 2610 1711
24 3763 1228
25 1531 1921
26 2052 754
27 21 1065
28 2923 403
